/*********************************************
    * Lab01 - FCR
    * Author: Coso
    * Creation Date: Mar, 2019
    *********************************************/
instance_name = "medium_instance_20_FCR";

d = 5;
r = 15;

SCj = [264 262 232 279 268];
Dk = [40 63 51 49 43 80 85 68 22 72 61 25 34 64 51];

Cjk = [[35 65 37 52 36 59 33 89 46 37 65 71 55 49 51]
 [74 32 63 33 69 59 89 40 60 76 43 83 62 68 68]
 [79 68 37 86 43 53 50 66 63 85 80 45 88 43 39]
 [60 63 63 40 60 53 73 45 85 48 84 33 52 37 71]
 [65 61 53 80 84 53 77 60 44 87 73 44 69 85 44]];
Fjk = [[775 865 491 759 778 787 552 665 387 651 821 494 755 632 650]
 [390 764 588 822 562 553 710 881 762 727 462 443 339 547 463]
 [497 418 827 771 872 882 391 536 819 344 479 829 325 522 810]
 [299 360 878 440 339 501 532 825 393 441 379 712 334 853 437]
 [468 310 672 592 422 302 504 481 586 867 834 523 435 386 871]];
